p cnf 210
-6 -58
-7 -61
-8 -64
-9 -67
-10 -70
-11 -72
-12 -74
-13 -76
-14 -78
-15 -80
-16 81
-17 -8
-17 10
8 -10 17
-18 8
-18 -10
-8 10 18
-19 -17
-19 -18
17 18 19
-20 -1
-20 -2
1 2 20
-21 -3
-21 -4
3 4 21
-22 20
-22 21
-20 -21 22
-23 -5
-23 22
5 -22 23
-24 -11
-24 -12
11 12 24
-25 -13
-25 -14
13 14 25
-26 24
-26 25
-24 -25 26
-27 -15
-27 26
15 -26 27
-28 11
-28 -19
-11 19 28
-29 -11
-29 19
11 -19 29
-30 -28
-30 -29
28 29 30
-31 6
-31 12
-6 -12 31
-32 -6
-32 -12
6 12 32
-33 -31
-33 -32
31 32 33
-34 7
-34 13
-7 -13 34
-35 -7
-35 -13
7 13 35
-36 -34
-36 -35
34 35 36
-37 8
-37 14
-8 -14 37
-38 -8
-38 -14
8 14 38
-39 -37
-39 -38
37 38 39
-40 9
-40 15
-9 -15 40
-41 -9
-41 -15
9 15 41
-42 -40
-42 -41
40 41 42
-43 -30
-43 -33
30 33 43
-44 -36
-44 -39
36 39 44
-45 43
-45 44
-43 -44 45
-46 -42
-46 45
42 -45 46
-47 -27
-47 46
27 -46 47
-48 16
-48 47
-16 -47 48
-49 23
-49 48
-23 -48 49
-50 -6
-50 19
6 -19 50
-51 -7
-51 -8
7 8 51
-52 50
-52 51
-50 -51 52
-53 -9
-53 52
9 -52 53
-54 -27
-54 53
27 -53 54
-55 23
-55 -47
-23 47 55
-56 1
-56 -23
-1 23 56
-57 -19
-57 23
19 -23 57
-58 -56
-58 -57
56 57 58
-59 2
-59 -23
-2 23 59
-60 6
-60 23
-6 -23 60
-61 -59
-61 -60
59 60 61
-62 3
-62 -23
-3 23 62
-63 7
-63 23
-7 -23 63
-64 -62
-64 -63
62 63 64
-65 4
-65 -23
-4 23 65
-66 8
-66 23
-8 -23 66
-67 -65
-67 -66
65 66 67
-68 5
-68 -23
-5 23 68
-69 9
-69 23
-9 -23 69
-70 -68
-70 -69
68 69 70
-71 11
-71 23
-11 -23 71
-72 -56
-72 -71
56 71 72
-73 12
-73 23
-12 -23 73
-74 -59
-74 -73
59 73 74
-75 13
-75 23
-13 -23 75
-76 -62
-76 -75
62 75 76
-77 14
-77 23
-14 -23 77
-78 -65
-78 -77
65 77 78
-79 15
-79 23
-15 -23 79
-80 -68
-80 -79
68 79 80
-81 -16
-81 55
16 -55 81
-82 -49
-82 -54
49 54 82
-82
